W=8;
H=5;

MAX_TIME=15;
MAX_TRACKS=10;

TARGET=(3,8);

TRAINS=[(3,1,RIGHT),(3,3,RIGHT),(3,5,RIGHT)];
DECOYS=[];

INIT_POS=[
(2,5,ROCK),
(3,1,STRAIGHT_RL),
(3,3,STRAIGHT_RL),
(3,5,STRAIGHT_RL),
(3,8,STRAIGHT_RL),
(4,5,ROCK),
];
TUNNEL_PAIRS=[
  (1, 2, DOWN, 5, 4, TOP),
  (1, 6, DOWN, 5, 2, TOP),
  (1, 4, DOWN, 5, 6, TOP),
];

GATES=[];
ACTIVATIONS=[];

DSWITCHES=[];

STATIONS=[];
